Route 1: 0 50 98 92 65 31 49 60 40 95 0
Route 2: 0 23 89 33 72 11 32 58 21 7 75 74 0
Route 3: 0 4 37 16 76 78 80 100 6 61 0
Route 4: 0 13 77 5 34 41 30 59 43 35 25 42 0
Route 5: 0 22 10 38 47 45 97 1 87 46 20 0
Route 6: 0 82 12 18 24 52 9 66 57 53 81 0
Route 7: 0 73 54 29 36 90 56 96 3 71 0
Route 8: 0 93 63 28 70 8 91 48 0
Route 9: 0 55 51 94 83 2 62 84 17 27 0
Route 10: 0 15 26 14 86 19 64 85 68 67 44 99 0
Route 11: 0 88 39 79 69 0
